c 
c G(n,p) graph
c graph gen seed     : 21111
c number of vertices : 80
c max number of edges: 3160
c edge probability   : 0.600000
c data structure     : dense
c
c           Graph Stats
c number of vertices  : 80
c nonisolated vertices: 80
c number of edges     : 1923
c edge density        : 0.608544
c max degree          : 57
c avg degree          : 48.08
c min degree          : 32
p col 80 1923
e 1 4
e 1 5
e 1 6
e 1 7
e 1 8
e 1 9
e 1 10
e 1 11
e 1 12
e 1 13
e 1 15
e 1 16
e 1 18
e 1 19
e 1 22
e 1 23
e 1 24
e 1 26
e 1 27
e 1 29
e 1 30
e 1 31
e 1 32
e 1 33
e 1 34
e 1 35
e 1 36
e 1 37
e 1 40
e 1 41
e 1 42
e 1 43
e 1 44
e 1 45
e 1 46
e 1 47
e 1 48
e 1 49
e 1 50
e 1 51
e 1 57
e 1 58
e 1 60
e 1 62
e 1 64
e 1 65
e 1 66
e 1 68
e 1 69
e 1 70
e 1 72
e 1 75
e 1 76
e 1 77
e 1 80
e 2 3
e 2 4
e 2 6
e 2 7
e 2 8
e 2 10
e 2 11
e 2 12
e 2 13
e 2 14
e 2 17
e 2 19
e 2 20
e 2 21
e 2 25
e 2 29
e 2 30
e 2 31
e 2 32
e 2 34
e 2 38
e 2 39
e 2 43
e 2 44
e 2 45
e 2 46
e 2 47
e 2 48
e 2 51
e 2 54
e 2 55
e 2 56
e 2 57
e 2 58
e 2 59
e 2 60
e 2 61
e 2 62
e 2 63
e 2 64
e 2 65
e 2 68
e 2 69
e 2 71
e 2 73
e 2 74
e 2 75
e 2 77
e 2 78
e 2 79
e 3 4
e 3 6
e 3 7
e 3 10
e 3 11
e 3 12
e 3 13
e 3 17
e 3 18
e 3 19
e 3 20
e 3 21
e 3 22
e 3 24
e 3 25
e 3 26
e 3 27
e 3 28
e 3 29
e 3 30
e 3 32
e 3 33
e 3 36
e 3 37
e 3 39
e 3 40
e 3 41
e 3 42
e 3 44
e 3 45
e 3 46
e 3 47
e 3 48
e 3 49
e 3 50
e 3 51
e 3 54
e 3 56
e 3 57
e 3 58
e 3 62
e 3 65
e 3 66
e 3 68
e 3 70
e 3 72
e 3 73
e 3 74
e 3 75
e 3 79
e 4 5
e 4 7
e 4 9
e 4 10
e 4 11
e 4 12
e 4 14
e 4 15
e 4 19
e 4 21
e 4 24
e 4 25
e 4 27
e 4 30
e 4 31
e 4 32
e 4 33
e 4 34
e 4 37
e 4 38
e 4 40
e 4 41
e 4 42
e 4 45
e 4 46
e 4 47
e 4 48
e 4 50
e 4 53
e 4 54
e 4 55
e 4 57
e 4 59
e 4 60
e 4 61
e 4 62
e 4 63
e 4 65
e 4 69
e 4 70
e 4 71
e 4 75
e 4 78
e 4 79
e 5 7
e 5 8
e 5 10
e 5 11
e 5 12
e 5 14
e 5 16
e 5 17
e 5 19
e 5 20
e 5 21
e 5 23
e 5 25
e 5 28
e 5 29
e 5 30
e 5 34
e 5 35
e 5 36
e 5 38
e 5 40
e 5 43
e 5 44
e 5 45
e 5 46
e 5 48
e 5 49
e 5 50
e 5 51
e 5 53
e 5 56
e 5 59
e 5 60
e 5 61
e 5 64
e 5 66
e 5 67
e 5 68
e 5 70
e 5 74
e 5 75
e 5 76
e 5 78
e 6 7
e 6 8
e 6 9
e 6 11
e 6 12
e 6 13
e 6 14
e 6 15
e 6 16
e 6 17
e 6 19
e 6 20
e 6 21
e 6 24
e 6 26
e 6 28
e 6 29
e 6 30
e 6 31
e 6 33
e 6 34
e 6 36
e 6 37
e 6 41
e 6 45
e 6 46
e 6 48
e 6 49
e 6 50
e 6 53
e 6 54
e 6 55
e 6 56
e 6 58
e 6 59
e 6 61
e 6 63
e 6 64
e 6 65
e 6 66
e 6 67
e 6 68
e 6 70
e 6 73
e 6 74
e 6 75
e 6 76
e 6 77
e 6 79
e 7 9
e 7 10
e 7 11
e 7 13
e 7 14
e 7 15
e 7 16
e 7 17
e 7 18
e 7 19
e 7 22
e 7 24
e 7 25
e 7 27
e 7 29
e 7 31
e 7 32
e 7 33
e 7 36
e 7 37
e 7 40
e 7 44
e 7 49
e 7 50
e 7 53
e 7 54
e 7 55
e 7 56
e 7 58
e 7 60
e 7 61
e 7 62
e 7 63
e 7 64
e 7 65
e 7 67
e 7 68
e 7 69
e 7 73
e 7 74
e 7 75
e 7 76
e 7 77
e 7 78
e 7 79
e 8 11
e 8 13
e 8 14
e 8 15
e 8 16
e 8 17
e 8 18
e 8 19
e 8 23
e 8 25
e 8 29
e 8 31
e 8 33
e 8 34
e 8 35
e 8 37
e 8 39
e 8 40
e 8 41
e 8 42
e 8 43
e 8 44
e 8 45
e 8 46
e 8 50
e 8 52
e 8 53
e 8 55
e 8 56
e 8 57
e 8 58
e 8 59
e 8 60
e 8 61
e 8 62
e 8 63
e 8 64
e 8 67
e 8 72
e 8 73
e 8 74
e 8 76
e 8 77
e 8 78
e 8 79
e 8 80
e 9 11
e 9 12
e 9 14
e 9 15
e 9 16
e 9 17
e 9 18
e 9 19
e 9 20
e 9 21
e 9 22
e 9 24
e 9 25
e 9 26
e 9 27
e 9 28
e 9 31
e 9 33
e 9 34
e 9 39
e 9 40
e 9 41
e 9 42
e 9 45
e 9 46
e 9 47
e 9 49
e 9 50
e 9 51
e 9 54
e 9 55
e 9 56
e 9 58
e 9 59
e 9 60
e 9 61
e 9 63
e 9 67
e 9 69
e 9 71
e 9 72
e 9 73
e 9 76
e 9 80
e 10 13
e 10 16
e 10 19
e 10 20
e 10 21
e 10 23
e 10 27
e 10 28
e 10 31
e 10 37
e 10 44
e 10 46
e 10 47
e 10 50
e 10 52
e 10 53
e 10 54
e 10 58
e 10 59
e 10 61
e 10 63
e 10 71
e 10 72
e 10 78
e 10 79
e 10 80
e 11 12
e 11 14
e 11 15
e 11 16
e 11 17
e 11 18
e 11 19
e 11 21
e 11 22
e 11 24
e 11 25
e 11 26
e 11 27
e 11 28
e 11 29
e 11 31
e 11 32
e 11 33
e 11 35
e 11 38
e 11 39
e 11 42
e 11 44
e 11 46
e 11 47
e 11 48
e 11 49
e 11 50
e 11 51
e 11 52
e 11 53
e 11 54
e 11 55
e 11 59
e 11 62
e 11 63
e 11 64
e 11 68
e 11 71
e 11 72
e 11 73
e 11 74
e 11 78
e 12 13
e 12 15
e 12 16
e 12 17
e 12 19
e 12 23
e 12 24
e 12 27
e 12 28
e 12 29
e 12 30
e 12 31
e 12 32
e 12 33
e 12 34
e 12 35
e 12 36
e 12 38
e 12 40
e 12 42
e 12 44
e 12 46
e 12 48
e 12 49
e 12 50
e 12 51
e 12 54
e 12 56
e 12 57
e 12 58
e 12 62
e 12 67
e 12 68
e 12 69
e 12 70
e 12 71
e 12 72
e 12 74
e 12 75
e 12 77
e 12 79
e 13 15
e 13 17
e 13 18
e 13 19
e 13 23
e 13 26
e 13 27
e 13 28
e 13 29
e 13 30
e 13 32
e 13 33
e 13 34
e 13 36
e 13 37
e 13 40
e 13 43
e 13 44
e 13 45
e 13 48
e 13 53
e 13 54
e 13 55
e 13 60
e 13 61
e 13 63
e 13 65
e 13 66
e 13 67
e 13 70
e 13 71
e 13 73
e 13 74
e 13 76
e 13 78
e 14 16
e 14 18
e 14 19
e 14 22
e 14 24
e 14 26
e 14 27
e 14 28
e 14 30
e 14 31
e 14 33
e 14 34
e 14 35
e 14 36
e 14 37
e 14 38
e 14 39
e 14 41
e 14 42
e 14 43
e 14 47
e 14 49
e 14 50
e 14 51
e 14 53
e 14 54
e 14 55
e 14 58
e 14 59
e 14 61
e 14 63
e 14 65
e 14 66
e 14 67
e 14 71
e 14 72
e 14 73
e 14 75
e 14 76
e 14 77
e 14 78
e 14 79
e 14 80
e 15 17
e 15 18
e 15 19
e 15 22
e 15 24
e 15 25
e 15 26
e 15 28
e 15 29
e 15 30
e 15 31
e 15 32
e 15 33
e 15 36
e 15 38
e 15 39
e 15 40
e 15 41
e 15 43
e 15 44
e 15 47
e 15 48
e 15 50
e 15 52
e 15 55
e 15 57
e 15 59
e 15 61
e 15 63
e 15 67
e 15 71
e 15 72
e 15 74
e 15 75
e 15 76
e 15 77
e 15 79
e 16 17
e 16 18
e 16 19
e 16 20
e 16 23
e 16 24
e 16 26
e 16 27
e 16 28
e 16 29
e 16 30
e 16 35
e 16 37
e 16 39
e 16 41
e 16 42
e 16 44
e 16 45
e 16 47
e 16 49
e 16 51
e 16 54
e 16 55
e 16 57
e 16 59
e 16 61
e 16 64
e 16 65
e 16 66
e 16 67
e 16 68
e 16 69
e 16 71
e 16 72
e 16 73
e 16 75
e 16 76
e 16 77
e 16 78
e 16 80
e 17 20
e 17 21
e 17 24
e 17 25
e 17 26
e 17 28
e 17 29
e 17 30
e 17 32
e 17 33
e 17 36
e 17 39
e 17 40
e 17 41
e 17 44
e 17 45
e 17 46
e 17 47
e 17 48
e 17 50
e 17 51
e 17 54
e 17 56
e 17 58
e 17 59
e 17 61
e 17 62
e 17 63
e 17 66
e 17 67
e 17 69
e 17 70
e 17 73
e 17 74
e 17 75
e 17 77
e 17 78
e 17 80
e 18 21
e 18 22
e 18 24
e 18 25
e 18 26
e 18 27
e 18 29
e 18 30
e 18 31
e 18 32
e 18 33
e 18 35
e 18 36
e 18 37
e 18 38
e 18 39
e 18 41
e 18 42
e 18 47
e 18 48
e 18 53
e 18 58
e 18 62
e 18 64
e 18 65
e 18 67
e 18 68
e 18 71
e 18 72
e 18 73
e 18 75
e 18 77
e 18 79
e 18 80
e 19 20
e 19 21
e 19 22
e 19 23
e 19 24
e 19 25
e 19 26
e 19 27
e 19 29
e 19 33
e 19 35
e 19 38
e 19 39
e 19 40
e 19 41
e 19 46
e 19 48
e 19 51
e 19 52
e 19 54
e 19 55
e 19 56
e 19 57
e 19 58
e 19 60
e 19 63
e 19 64
e 19 67
e 19 68
e 19 69
e 19 70
e 19 71
e 19 72
e 19 73
e 19 75
e 19 76
e 19 78
e 19 80
e 20 21
e 20 22
e 20 23
e 20 24
e 20 25
e 20 27
e 20 28
e 20 30
e 20 31
e 20 33
e 20 35
e 20 36
e 20 38
e 20 39
e 20 40
e 20 43
e 20 44
e 20 46
e 20 47
e 20 48
e 20 49
e 20 51
e 20 53
e 20 54
e 20 55
e 20 56
e 20 57
e 20 58
e 20 59
e 20 60
e 20 62
e 20 63
e 20 65
e 20 68
e 20 71
e 20 72
e 20 73
e 20 75
e 20 76
e 20 77
e 20 78
e 20 79
e 20 80
e 21 22
e 21 23
e 21 28
e 21 31
e 21 32
e 21 34
e 21 36
e 21 37
e 21 38
e 21 39
e 21 42
e 21 43
e 21 46
e 21 47
e 21 48
e 21 50
e 21 51
e 21 52
e 21 53
e 21 54
e 21 55
e 21 57
e 21 58
e 21 59
e 21 60
e 21 61
e 21 62
e 21 63
e 21 66
e 21 67
e 21 68
e 21 72
e 21 74
e 21 75
e 21 76
e 21 77
e 22 23
e 22 27
e 22 31
e 22 36
e 22 38
e 22 40
e 22 41
e 22 43
e 22 45
e 22 48
e 22 49
e 22 51
e 22 53
e 22 55
e 22 56
e 22 57
e 22 58
e 22 59
e 22 60
e 22 62
e 22 64
e 22 65
e 22 67
e 22 68
e 22 69
e 22 70
e 22 71
e 22 73
e 22 74
e 22 76
e 23 24
e 23 25
e 23 26
e 23 29
e 23 30
e 23 31
e 23 32
e 23 36
e 23 37
e 23 38
e 23 40
e 23 41
e 23 43
e 23 46
e 23 48
e 23 49
e 23 52
e 23 53
e 23 55
e 23 56
e 23 57
e 23 58
e 23 61
e 23 62
e 23 64
e 23 65
e 23 67
e 23 68
e 23 69
e 23 70
e 23 71
e 23 72
e 23 74
e 23 78
e 24 27
e 24 29
e 24 30
e 24 31
e 24 32
e 24 35
e 24 37
e 24 38
e 24 41
e 24 43
e 24 44
e 24 45
e 24 46
e 24 48
e 24 49
e 24 50
e 24 51
e 24 52
e 24 55
e 24 58
e 24 59
e 24 60
e 24 61
e 24 62
e 24 64
e 24 66
e 24 68
e 24 69
e 24 70
e 24 72
e 24 73
e 24 77
e 25 28
e 25 29
e 25 30
e 25 32
e 25 35
e 25 36
e 25 38
e 25 39
e 25 40
e 25 41
e 25 42
e 25 43
e 25 44
e 25 47
e 25 49
e 25 50
e 25 51
e 25 52
e 25 54
e 25 55
e 25 57
e 25 59
e 25 60
e 25 61
e 25 63
e 25 64
e 25 65
e 25 66
e 25 67
e 25 68
e 25 69
e 25 70
e 25 73
e 25 76
e 25 77
e 25 79
e 25 80
e 26 27
e 26 28
e 26 29
e 26 30
e 26 35
e 26 38
e 26 40
e 26 42
e 26 44
e 26 45
e 26 46
e 26 47
e 26 48
e 26 49
e 26 50
e 26 52
e 26 55
e 26 57
e 26 58
e 26 60
e 26 61
e 26 62
e 26 63
e 26 64
e 26 66
e 26 68
e 26 71
e 26 72
e 26 77
e 26 78
e 26 80
e 27 29
e 27 31
e 27 32
e 27 33
e 27 34
e 27 35
e 27 37
e 27 38
e 27 39
e 27 41
e 27 42
e 27 43
e 27 44
e 27 45
e 27 46
e 27 47
e 27 48
e 27 49
e 27 52
e 27 53
e 27 55
e 27 57
e 27 58
e 27 60
e 27 62
e 27 63
e 27 64
e 27 65
e 27 69
e 27 71
e 27 73
e 27 75
e 27 77
e 27 78
e 28 29
e 28 32
e 28 33
e 28 35
e 28 36
e 28 40
e 28 42
e 28 45
e 28 46
e 28 50
e 28 51
e 28 52
e 28 53
e 28 54
e 28 55
e 28 56
e 28 57
e 28 59
e 28 60
e 28 61
e 28 62
e 28 66
e 28 67
e 28 68
e 28 69
e 28 73
e 28 75
e 28 78
e 29 30
e 29 31
e 29 33
e 29 35
e 29 36
e 29 37
e 29 39
e 29 40
e 29 44
e 29 45
e 29 46
e 29 48
e 29 49
e 29 52
e 29 54
e 29 55
e 29 56
e 29 57
e 29 59
e 29 61
e 29 62
e 29 64
e 29 65
e 29 66
e 29 69
e 29 70
e 29 71
e 29 72
e 29 75
e 29 79
e 29 80
e 30 31
e 30 32
e 30 33
e 30 35
e 30 36
e 30 37
e 30 38
e 30 39
e 30 40
e 30 43
e 30 47
e 30 48
e 30 49
e 30 50
e 30 52
e 30 53
e 30 54
e 30 57
e 30 58
e 30 59
e 30 60
e 30 61
e 30 62
e 30 63
e 30 64
e 30 65
e 30 66
e 30 67
e 30 71
e 30 72
e 30 73
e 30 76
e 30 77
e 30 78
e 30 79
e 30 80
e 31 32
e 31 34
e 31 37
e 31 38
e 31 40
e 31 41
e 31 42
e 31 43
e 31 44
e 31 45
e 31 46
e 31 48
e 31 49
e 31 50
e 31 52
e 31 53
e 31 56
e 31 59
e 31 60
e 31 61
e 31 62
e 31 64
e 31 65
e 31 66
e 31 67
e 31 69
e 31 70
e 31 73
e 31 74
e 31 76
e 31 77
e 31 78
e 31 79
e 31 80
e 32 35
e 32 38
e 32 39
e 32 40
e 32 41
e 32 46
e 32 49
e 32 50
e 32 51
e 32 52
e 32 54
e 32 55
e 32 56
e 32 57
e 32 58
e 32 59
e 32 61
e 32 65
e 32 66
e 32 67
e 32 72
e 32 73
e 32 74
e 32 75
e 32 76
e 32 80
e 33 35
e 33 36
e 33 37
e 33 38
e 33 39
e 33 40
e 33 43
e 33 46
e 33 48
e 33 51
e 33 52
e 33 56
e 33 57
e 33 59
e 33 60
e 33 61
e 33 62
e 33 63
e 33 65
e 33 66
e 33 68
e 33 69
e 33 70
e 33 72
e 33 74
e 33 75
e 33 76
e 33 77
e 33 78
e 33 80
e 34 38
e 34 40
e 34 41
e 34 42
e 34 43
e 34 44
e 34 45
e 34 50
e 34 51
e 34 54
e 34 56
e 34 57
e 34 58
e 34 59
e 34 60
e 34 61
e 34 63
e 34 64
e 34 65
e 34 66
e 34 68
e 34 70
e 34 71
e 34 72
e 34 73
e 34 75
e 34 76
e 34 77
e 34 78
e 34 79
e 35 36
e 35 38
e 35 39
e 35 41
e 35 42
e 35 43
e 35 44
e 35 45
e 35 50
e 35 52
e 35 53
e 35 56
e 35 57
e 35 58
e 35 59
e 35 61
e 35 62
e 35 64
e 35 65
e 35 67
e 35 68
e 35 71
e 35 72
e 35 73
e 35 74
e 35 75
e 35 76
e 35 78
e 35 79
e 35 80
e 36 38
e 36 39
e 36 40
e 36 44
e 36 45
e 36 46
e 36 47
e 36 48
e 36 49
e 36 50
e 36 51
e 36 52
e 36 53
e 36 54
e 36 55
e 36 56
e 36 57
e 36 58
e 36 59
e 36 60
e 36 63
e 36 64
e 36 65
e 36 66
e 36 69
e 36 70
e 36 75
e 36 76
e 36 79
e 37 38
e 37 41
e 37 42
e 37 45
e 37 47
e 37 48
e 37 49
e 37 50
e 37 52
e 37 55
e 37 56
e 37 57
e 37 60
e 37 61
e 37 62
e 37 63
e 37 64
e 37 65
e 37 66
e 37 68
e 37 69
e 37 70
e 37 71
e 37 72
e 37 78
e 37 80
e 38 39
e 38 41
e 38 44
e 38 48
e 38 49
e 38 50
e 38 51
e 38 52
e 38 53
e 38 54
e 38 57
e 38 58
e 38 59
e 38 60
e 38 61
e 38 62
e 38 63
e 38 64
e 38 67
e 38 68
e 38 70
e 38 72
e 38 73
e 38 77
e 38 79
e 38 80
e 39 40
e 39 42
e 39 44
e 39 45
e 39 46
e 39 49
e 39 50
e 39 51
e 39 52
e 39 53
e 39 54
e 39 55
e 39 58
e 39 60
e 39 61
e 39 62
e 39 63
e 39 64
e 39 66
e 39 67
e 39 69
e 39 78
e 39 79
e 40 42
e 40 43
e 40 46
e 40 48
e 40 49
e 40 50
e 40 51
e 40 52
e 40 56
e 40 58
e 40 59
e 40 60
e 40 61
e 40 62
e 40 63
e 40 64
e 40 65
e 40 69
e 40 71
e 40 75
e 40 76
e 40 77
e 41 42
e 41 44
e 41 46
e 41 47
e 41 49
e 41 50
e 41 53
e 41 55
e 41 56
e 41 57
e 41 58
e 41 60
e 41 61
e 41 62
e 41 64
e 41 66
e 41 67
e 41 68
e 41 69
e 41 71
e 41 75
e 41 76
e 41 77
e 41 78
e 41 80
e 42 44
e 42 46
e 42 49
e 42 51
e 42 53
e 42 55
e 42 56
e 42 58
e 42 59
e 42 60
e 42 61
e 42 62
e 42 66
e 42 67
e 42 71
e 42 72
e 42 73
e 42 74
e 42 75
e 42 76
e 42 77
e 42 80
e 43 44
e 43 45
e 43 47
e 43 48
e 43 51
e 43 52
e 43 53
e 43 54
e 43 55
e 43 56
e 43 57
e 43 59
e 43 60
e 43 62
e 43 63
e 43 64
e 43 66
e 43 67
e 43 70
e 43 71
e 43 72
e 43 74
e 43 75
e 43 76
e 43 77
e 43 78
e 43 79
e 43 80
e 44 45
e 44 46
e 44 49
e 44 51
e 44 53
e 44 54
e 44 55
e 44 56
e 44 57
e 44 58
e 44 60
e 44 61
e 44 62
e 44 64
e 44 65
e 44 66
e 44 67
e 44 68
e 44 73
e 44 74
e 44 75
e 44 76
e 44 77
e 44 78
e 44 80
e 45 47
e 45 48
e 45 50
e 45 52
e 45 58
e 45 59
e 45 61
e 45 62
e 45 63
e 45 65
e 45 66
e 45 68
e 45 69
e 45 70
e 45 71
e 45 72
e 45 73
e 45 74
e 45 75
e 45 77
e 45 78
e 46 47
e 46 48
e 46 49
e 46 50
e 46 52
e 46 53
e 46 54
e 46 56
e 46 57
e 46 59
e 46 65
e 46 66
e 46 68
e 46 69
e 46 70
e 46 71
e 46 72
e 46 73
e 46 74
e 46 75
e 46 79
e 47 48
e 47 49
e 47 51
e 47 53
e 47 54
e 47 55
e 47 56
e 47 59
e 47 61
e 47 62
e 47 67
e 47 68
e 47 70
e 47 74
e 47 75
e 47 77
e 47 79
e 48 49
e 48 51
e 48 54
e 48 55
e 48 56
e 48 59
e 48 61
e 48 62
e 48 66
e 48 67
e 48 68
e 48 70
e 48 71
e 48 72
e 48 77
e 49 58
e 49 59
e 49 61
e 49 62
e 49 64
e 49 65
e 49 67
e 49 68
e 49 69
e 49 70
e 49 72
e 49 75
e 49 77
e 49 78
e 49 79
e 50 52
e 50 53
e 50 54
e 50 56
e 50 58
e 50 59
e 50 63
e 50 65
e 50 66
e 50 68
e 50 69
e 50 70
e 50 72
e 50 73
e 50 74
e 50 75
e 50 78
e 51 52
e 51 53
e 51 54
e 51 55
e 51 56
e 51 60
e 51 61
e 51 62
e 51 63
e 51 64
e 51 65
e 51 66
e 51 67
e 51 68
e 51 70
e 51 71
e 51 72
e 51 74
e 51 76
e 51 78
e 51 79
e 52 53
e 52 54
e 52 55
e 52 56
e 52 58
e 52 60
e 52 61
e 52 62
e 52 63
e 52 64
e 52 66
e 52 67
e 52 68
e 52 70
e 52 75
e 52 76
e 52 77
e 52 79
e 52 80
e 53 54
e 53 55
e 53 57
e 53 58
e 53 59
e 53 60
e 53 61
e 53 63
e 53 66
e 53 67
e 53 68
e 53 69
e 53 70
e 53 71
e 53 73
e 53 74
e 53 75
e 53 76
e 53 77
e 53 79
e 53 80
e 54 56
e 54 57
e 54 62
e 54 64
e 54 65
e 54 68
e 54 70
e 54 73
e 54 77
e 54 79
e 55 57
e 55 58
e 55 59
e 55 61
e 55 67
e 55 68
e 55 69
e 55 70
e 55 71
e 55 73
e 55 74
e 55 75
e 55 77
e 55 78
e 55 79
e 55 80
e 56 59
e 56 61
e 56 62
e 56 63
e 56 64
e 56 65
e 56 66
e 56 70
e 56 71
e 56 73
e 56 74
e 56 75
e 56 76
e 56 78
e 56 79
e 56 80
e 57 58
e 57 59
e 57 60
e 57 61
e 57 62
e 57 63
e 57 66
e 57 69
e 57 71
e 57 74
e 57 77
e 57 79
e 57 80
e 58 59
e 58 60
e 58 61
e 58 63
e 58 64
e 58 65
e 58 66
e 58 72
e 58 74
e 58 76
e 58 78
e 58 79
e 58 80
e 59 62
e 59 63
e 59 65
e 59 66
e 59 71
e 59 73
e 59 74
e 59 76
e 59 79
e 59 80
e 60 61
e 60 63
e 60 64
e 60 66
e 60 67
e 60 68
e 60 69
e 60 76
e 60 77
e 60 79
e 61 63
e 61 64
e 61 67
e 61 68
e 61 70
e 61 71
e 61 74
e 61 75
e 61 76
e 61 77
e 61 78
e 61 79
e 62 65
e 62 66
e 62 68
e 62 69
e 62 71
e 62 75
e 62 76
e 62 78
e 63 65
e 63 67
e 63 68
e 63 69
e 63 70
e 63 73
e 63 74
e 63 75
e 63 76
e 63 77
e 63 79
e 63 80
e 64 67
e 64 68
e 64 71
e 64 72
e 64 73
e 64 74
e 64 78
e 64 80
e 65 66
e 65 69
e 65 70
e 65 71
e 65 72
e 65 73
e 65 74
e 65 75
e 65 76
e 65 77
e 65 78
e 66 68
e 66 70
e 66 72
e 66 73
e 66 74
e 66 76
e 66 77
e 66 79
e 66 80
e 67 68
e 67 69
e 67 73
e 67 74
e 67 76
e 67 77
e 67 78
e 67 80
e 68 70
e 68 71
e 68 72
e 68 73
e 68 76
e 68 77
e 68 79
e 68 80
e 69 70
e 69 72
e 69 74
e 69 75
e 69 76
e 69 77
e 70 71
e 70 72
e 70 73
e 70 74
e 70 75
e 70 77
e 70 79
e 71 73
e 71 74
e 71 76
e 71 77
e 71 78
e 71 79
e 71 80
e 72 76
e 72 78
e 72 79
e 72 80
e 73 76
e 73 77
e 73 78
e 73 79
e 73 80
e 74 75
e 74 77
e 74 79
e 74 80
e 75 76
e 75 77
e 75 80
e 76 77
e 76 78
e 76 80
e 77 78
e 78 79
e 78 80
e 79 80
